# Solution for model r5_t27_m6_6 Batch Number: 3
# Finished Task: 25 / 27
# Makespan: 529.0, Total Distance: 476.0, Total Time: 2.8328
# R O S F Batch
0 0 7 0.0 0.0 -1
1 1 20 0.0 0.0 -1
2 2 11 0.0 0.0 -1
3 3 21 0.0 0.0 -1
4 4 18 0.0 0.0 -1
5 1 22 278.0 298.0 0
6 0 14 259.0 282.0 0
7 0 8 185.0 214.0 0
8 0 6 214.0 246.0 0
9 2 19 464.0 485.0 2
10 0 23 330.0 365.0 2
11 2 12 308.0 334.0 0
12 2 31 383.0 415.0 0
13 1 5 246.0 278.0 0
14 0 10 296.0 330.0 0
15 1 -1 428.0 464.0 2
16 3 24 176.0 214.0 0
17 1 15 387.0 409.0 0
18 4 -1 394.0 415.0 0
19 2 -1 507.0 529.0 2
20 1 13 164.0 192.0 0
21 3 16 139.0 164.0 0
22 1 29 308.0 333.0 0
23 0 -1 386.0 418.0 2
24 3 25 255.0 287.0 0
25 3 28 311.0 345.0 0
26 -1 -1 -1.0 -1.0 2
27 -1 -1 -1.0 -1.0 2
28 3 30 399.0 423.0 1
29 1 17 358.0 378.0 0
30 3 -1 468.0 497.0 2
31 2 9 434.0 454.0 2
